qbf_easy_train/easy_2924_SAT.qdimacs
p cnf 19 43
a 4 13 15 0
e 1 2 3 5 6 7 8 9 10 11 12 14 16 17 18 19 0
-2 3 -4 0
2 -3 -4 0
-2 -3 4 0
2 3 4 0
5 -1 0
5 -4 0
1 4 -5 0
6 -7 -8 0
-6 7 -8 0
6 7 8 0
-6 -7 8 0
-5 8 -9 0
5 -8 -9 0
-5 -8 9 0
5 8 9 0
-10 -3 0
-10 6 0
3 -6 10 0
9 -10 -11 0
-9 10 -11 0
9 10 11 0
-9 -10 11 0
-13 2 0
-13 12 0
-2 -12 13 0
15 6 0
15 14 0
-6 -14 -15 0
15 -16 -17 0
-15 16 -17 0
15 16 17 0
-15 -16 17 0
-18 13 0
-18 -17 0
-13 17 18 0
19 11 0
19 18 0
-11 -18 -19 0
18 16 -4 -7 0
-12 7 8 -13 0
10 3 -6 -1 -16 17 0
4 17 -16 18 0
19 0
