sat_easy_train/easy_2924_SAT.dimacs
p cnf 97 309
-3 -1 0
-3 -2 0
1 2 3 0
5 3 0
5 4 0
-3 -4 -5 0
-6 -7 -8 0
6 7 -8 0
-6 7 8 0
6 -7 8 0
-9 -8 0
-9 4 0
8 -4 9 0
-4 10 -11 0
4 -10 -11 0
-4 -10 11 0
4 10 11 0
4 1 -12 0
-4 -1 -12 0
4 -1 12 0
-4 1 12 0
11 12 -13 0
-11 -12 -13 0
11 -12 13 0
-11 12 13 0
14 4 -15 0
-14 -4 -15 0
14 -4 15 0
-14 4 15 0
-16 7 0
-16 -15 0
-7 15 16 0
17 13 0
17 -16 0
-13 16 -17 0
9 17 -18 0
-9 -17 -18 0
9 -17 18 0
-9 17 18 0
-5 18 -19 0
5 -18 -19 0
-5 -18 19 0
5 18 19 0
2 15 -20 0
-2 -15 -20 0
2 -15 20 0
-2 15 20 0
-21 -12 0
-21 20 0
12 -20 21 0
-22 19 0
-22 21 0
-19 -21 22 0
-24 1 0
-24 -23 0
-1 23 24 0
-8 14 -25 0
8 -14 -25 0
-8 -14 25 0
8 14 25 0
25 23 -26 0
-25 -23 -26 0
25 -23 26 0
-25 23 26 0
-28 -26 0
-28 27 0
26 -27 28 0
-29 24 0
-29 -28 0
-24 28 29 0
-30 6 -31 0
30 -6 -31 0
-30 -6 31 0
30 6 31 0
34 -32 0
34 33 0
32 -33 -34 0
35 2 0
35 -34 0
-2 34 -35 0
36 31 0
36 -35 0
-31 35 -36 0
-37 -29 0
-37 36 0
29 -36 37 0
-39 -3 0
-39 -38 0
3 38 39 0
-40 14 0
-40 14 0
-14 40 0
-41 -6 0
-41 -40 0
6 40 41 0
42 10 0
42 -23 0
-10 23 -42 0
-43 41 0
-43 -42 0
-41 42 43 0
44 -39 0
44 43 0
39 -43 -44 0
45 4 0
45 -44 0
-4 44 -45 0
-47 11 0
-47 46 0
-11 -46 47 0
-45 -47 -48 0
45 47 -48 0
-45 47 48 0
45 -47 48 0
-49 -38 0
-49 26 0
38 -26 49 0
-50 49 0
-50 -39 0
-49 39 50 0
51 48 0
51 -50 0
-48 50 -51 0
52 -37 0
52 51 0
37 -51 -52 0
-53 -46 0
-53 -2 0
46 2 53 0
15 -47 -54 0
-15 47 -54 0
15 47 54 0
-15 -47 54 0
-55 -53 0
-55 54 0
53 -54 55 0
-56 -24 0
-56 40 0
24 -40 56 0
-55 56 -57 0
55 -56 -57 0
-55 -56 57 0
55 56 57 0
-58 -20 -59 0
58 20 -59 0
-58 20 59 0
58 -20 59 0
60 -2 0
60 27 0
2 -27 -60 0
-61 59 0
-61 60 0
-59 -60 61 0
57 61 -62 0
-57 -61 -62 0
57 -61 62 0
-57 61 62 0
-63 3 0
-63 -15 0
-3 15 63 0
-64 4 0
-64 30 0
-4 -30 64 0
-65 63 0
-65 -64 0
-63 64 65 0
66 -33 0
66 65 0
33 -65 -66 0
-67 -62 0
-67 -66 0
62 66 67 0
52 67 -68 0
-52 -67 -68 0
52 -67 68 0
-52 67 68 0
69 -22 0
69 -68 0
22 68 -69 0
70 -64 0
70 -4 0
64 4 -70 0
71 25 0
71 20 0
-25 -20 -71 0
-72 -53 0
-72 41 0
53 -41 72 0
64 46 -73 0
-64 -46 -73 0
64 -46 73 0
-64 46 73 0
74 72 0
74 73 0
-72 -73 -74 0
2 8 -75 0
-2 -8 -75 0
2 -8 75 0
-2 8 75 0
23 75 -76 0
-23 -75 -76 0
23 -75 76 0
-23 75 76 0
77 74 0
77 76 0
-74 -76 -77 0
-78 71 0
-78 -77 0
-71 77 78 0
79 -70 0
79 78 0
70 -78 -79 0
80 69 0
80 -79 0
-69 79 -80 0
-81 24 0
-81 75 0
-24 -75 81 0
-83 -39 0
-83 82 0
39 -82 83 0
84 14 0
84 -83 0
-14 83 -84 0
84 14 -85 0
-84 -14 -85 0
84 -14 85 0
-84 14 85 0
86 -81 0
86 85 0
81 -85 -86 0
-80 86 -87 0
80 -86 -87 0
-80 -86 87 0
80 86 87 0
-88 41 0
-88 -24 0
-41 24 88 0
-89 -3 0
-89 12 0
3 -12 89 0
89 54 -90 0
-89 -54 -90 0
89 -54 90 0
-89 54 90 0
46 -90 -91 0
-46 90 -91 0
46 90 91 0
-46 -90 91 0
92 88 0
92 -91 0
-88 91 -92 0
93 -24 0
93 10 0
24 -10 -93 0
94 -82 0
94 -14 0
82 14 -94 0
95 93 0
95 94 0
-93 -94 -95 0
-96 92 0
-96 -95 0
-92 95 96 0
87 96 -97 0
-87 -96 -97 0
87 -96 97 0
-87 96 97 0
-97 44 86 0
79 -75 -15 -97 12 0
-83 46 29 -96 0
-48 65 44 0
-82 -60 -79 0
3 4 36 25 -10 0
26 74 0
68 -97 -59 0
-85 -38 0
21 38 56 -14 -72 -47 0
-96 97 -56 15 0
75 -56 -89 -11 0
88 48 0
-27 -78 -48 79 76 0
67 -75 -64 -69 31 -27 0
71 -42 60 92 -40 0
72 -36 0
74 46 93 65 -49 0
-68 17 -40 63 51 86 0
-2 21 88 -28 -85 0
87 37 43 -22 0
42 73 0
66 -73 0
69 88 87 39 -54 -38 0
37 -51 -26 -72 0
86 50 15 1 -65 -27 0
12 -2 -79 0
-53 -12 0
41 96 -16 0
-25 -83 -90 -74 -17 39 0
-96 17 -42 61 28 -51 0
-38 23 78 46 0
83 -58 93 0
95 33 0
-89 -91 0
-25 -91 0
-67 10 0
58 93 -96 -39 0
-40 92 54 89 -33 0
-28 -81 -64 -97 40 96 0
97 0
